c nIsolatedPIs 8
c maxPI 24
p cnf 75 154
c gate 25 9 21 0
9 -25 0
21 -25 0
-9 -21 25 0
c gate 26 10 22 0
10 -26 0
22 -26 0
-10 -22 26 0
c gate 27 -25 -26 0
-25 -27 0
-26 -27 0
25 26 27 0
c gate 28 -10 -22 0
-10 -28 0
-22 -28 0
10 22 28 0
c gate 29 -11 -23 0
-11 -29 0
-23 -29 0
11 23 29 0
c gate 30 -28 -29 0
-28 -30 0
-29 -30 0
28 29 30 0
c gate 31 -27 -30 0
-27 -31 0
-30 -31 0
27 30 31 0
c gate 32 5 17 0
5 -32 0
17 -32 0
-5 -17 32 0
c gate 33 6 18 0
6 -33 0
18 -33 0
-6 -18 33 0
c gate 34 -32 -33 0
-32 -34 0
-33 -34 0
32 33 34 0
c gate 35 -7 -19 0
-7 -35 0
-19 -35 0
7 19 35 0
c gate 36 -6 -18 0
-6 -36 0
-18 -36 0
6 18 36 0
c gate 37 -35 -36 0
-35 -37 0
-36 -37 0
35 36 37 0
c gate 38 -34 37 0
-34 -38 0
37 -38 0
34 -37 38 0
c gate 39 7 19 0
7 -39 0
19 -39 0
-7 -19 39 0
c gate 40 8 20 0
8 -40 0
20 -40 0
-8 -20 40 0
c gate 41 -39 -40 0
-39 -41 0
-40 -41 0
39 40 41 0
c gate 42 -38 41 0
-38 -42 0
41 -42 0
38 -41 42 0
c gate 43 -9 -21 0
-9 -43 0
-21 -43 0
9 21 43 0
c gate 44 -8 -20 0
-8 -44 0
-20 -44 0
8 20 44 0
c gate 45 -43 -44 0
-43 -45 0
-44 -45 0
43 44 45 0
c gate 46 27 45 0
27 -46 0
45 -46 0
-27 -45 46 0
c gate 47 30 46 0
30 -47 0
46 -47 0
-30 -46 47 0
c gate 48 -42 47 0
-42 -48 0
47 -48 0
42 -47 48 0
c gate 49 -31 -48 0
-31 -49 0
-48 -49 0
31 48 49 0
c gate 50 12 24 0
12 -50 0
24 -50 0
-12 -24 50 0
c gate 51 -12 -24 0
-12 -51 0
-24 -51 0
12 24 51 0
c gate 52 11 23 0
11 -52 0
23 -52 0
-11 -23 52 0
c gate 53 -51 -52 0
-51 -53 0
-52 -53 0
51 52 53 0
c gate 54 -50 53 0
-50 -54 0
53 -54 0
50 -53 54 0
c gate 55 -49 54 0
-49 -55 0
54 -55 0
49 -54 55 0
c gate 56 4 16 0
4 -56 0
16 -56 0
-4 -16 56 0
c gate 57 -5 -17 0
-5 -57 0
-17 -57 0
5 17 57 0
c gate 58 -32 -57 0
-32 -58 0
-57 -58 0
32 57 58 0
c gate 59 56 -58 0
56 -59 0
-58 -59 0
-56 58 59 0
c gate 60 -4 -16 0
-4 -60 0
-16 -60 0
4 16 60 0
c gate 61 3 15 0
3 -61 0
15 -61 0
-3 -15 61 0
c gate 62 -56 -61 0
-56 -62 0
-61 -62 0
56 61 62 0
c gate 63 -60 -62 0
-60 -63 0
-62 -63 0
60 62 63 0
c gate 64 -59 63 0
-59 -64 0
63 -64 0
59 -63 64 0
c gate 65 -2 -14 0
-2 -65 0
-14 -65 0
2 14 65 0
c gate 66 2 14 0
2 -66 0
14 -66 0
-2 -14 66 0
c gate 67 1 13 0
1 -67 0
13 -67 0
-1 -13 67 0
c gate 68 -66 67 0
-66 -68 0
67 -68 0
66 -67 68 0
c gate 69 -65 68 0
-65 -69 0
68 -69 0
65 -68 69 0
c gate 70 -3 -15 0
-3 -70 0
-15 -70 0
3 15 70 0
c gate 71 -61 66 0
-61 -71 0
66 -71 0
61 -66 71 0
c gate 72 -70 71 0
-70 -72 0
71 -72 0
70 -71 72 0
c gate 73 -69 -72 0
-69 -73 0
-72 -73 0
69 72 73 0
c gate 74 -64 73 0
-64 -74 0
73 -74 0
64 -73 74 0
c gate 75 -55 74 0
-55 -75 0
74 -75 0
55 -74 75 0
c PO
-75 0
